NAME : traveling-santa-2018-prime-paths.30144.tour
COMMENT : Length = 30144
COMMENT : Found by LKH [Keld Helsgaun] Sun Jun 12 20:00:16 2022
TYPE : TOUR
DIMENSION : 100
TOUR_SECTION
1
2
13
48
19
11
76
36
70
82
66
83
47
7
24
96
29
57
89
34
90
16
75
50
18
8
38
94
52
45
60
21
39
81
27
51
26
84
20
59
55
53
68
61
74
98
56
77
63
99
28
71
23
12
65
43
6
22
78
14
88
46
62
33
3
87
79
93
92
86
5
35
95
9
91
67
54
4
40
17
85
73
30
15
58
64
42
44
31
37
100
72
69
49
41
25
10
32
97
80
-1
EOF
